NAME: random-26-19170
TYPE: TSP
COMMENT: size=26 seed=19170
DIMENSION: 54
EDGE_WEIGHT_TYPE: EUC_2D
NODE_COORD_SECTION
+0 190 243
-0 190 243
+1 289 781
-1 533 849
+2 676 584
-2 703 871
+3 577 826
-3 262 872
+4 935 821
-4 350 233
+5 569 975
-5 900 798
+6 213 263
-6 816 115
+7 542 623
-7 340 103
+8 983 267
-8 530 686
+9 261 830
-9 724 629
+10 845 995
-10 919 793
+11 67 379
-11 884 997
+12 111 888
-12 799 784
+13 334 437
-13 671 723
+14 158 744
-14 537 343
+15 466 83
-15 971 675
+16 459 567
-16 743 227
+17 64 399
-17 754 262
+18 733 711
-18 765 139
+19 124 0
-19 344 422
+20 307 239
-20 242 711
+21 222 154
-21 739 498
+22 797 309
-22 870 726
+23 834 107
-23 683 821
+24 67 533
-24 646 419
+25 70 547
-25 335 314
+26 228 34
-26 936 939
PRECEDENCE_SECTION
+0 -0
+1 -1
+2 -2
+3 -3
+4 -4
+5 -5
+6 -6
+7 -7
+8 -8
+9 -9
+10 -10
+11 -11
+12 -12
+13 -13
+14 -14
+15 -15
+16 -16
+17 -17
+18 -18
+19 -19
+20 -20
+21 -21
+22 -22
+23 -23
+24 -24
+25 -25
+26 -26
EOF
